c Random generated cnf formula, satisfiable: false
p cnf 10 50
-8 6 2 0
10 1 -6 0
10 -2 1 0
5 -10 8 0
-6 -1 8 0
5 -3 6 0
8 -10 3 0
-3 2 5 0
2 1 3 0
-1 -2 8 0
-1 -7 10 0
-6 -2 9 0
1 10 6 0
9 4 -5 0
9 -5 -4 0
-4 9 2 0
-4 -6 -5 0
-9 7 8 0
10 7 -9 0
9 -3 5 0
-1 5 -2 0
-4 -9 3 0
-1 -8 4 0
8 -9 -3 0
-8 -7 10 0
-9 -10 7 0
2 1 3 0
-6 -8 -1 0
2 -10 -7 0
-3 6 5 0
10 7 -2 0
7 -1 4 0
-6 1 -2 0
-3 2 1 0
-8 6 9 0
7 10 -9 0
-1 3 2 0
1 6 -5 0
-4 6 -8 0
4 3 -9 0
-1 6 -3 0
-10 1 -9 0
-8 -2 -3 0
-9 -7 -3 0
8 4 7 0
10 7 -5 0
2 10 -5 0
-4 8 6 0
-7 -4 -8 0
6 -10 7 0
